32	4
12	15	15	16
0	0	0	0	0	3	4	2	3
5	5	2	9	3	2	6	9
4	6	7	8	0	1	11
7	8	2	10	8	3	5	7	17
3	7	9	4	8	3	8	13	22
10	5	3	6	9	2	12	26
4	2	8	6	10	4	10	19	24	26
2	5	5	0	3	1	29
7	2	3	1	0	3	13	18	20
7	0	0	0	8	1	18
3	5	9	5	6	2	16	31
2	2	10	4	2	1	15
4	1	4	7	4	2	14	19
2	3	8	4	0	1	26
2	0	1	0	2	1	24
7	3	9	5	6	1	28
5	9	1	1	10	1	21
3	7	10	9	7	1	23
6	5	6	0	8	1	27
4	5	3	9	0	2	22	25
6	10	9	14	8	2	26	27
5	1	4	0	2	1	26
7	0	0	10	2	2	27	30
3	6	8	5	6	2	25	30
2	2	10	8	4	1	31
6	7	9	14	2	1	28
1	2	7	6	4	1	29
4	2	4	6	5	1	29
4	6	4	10	6	1	32
9	0	6	1	4	1	32
1	0	5	1	6	1	32
0	0	0	0	0	0
